(declare-const havoc Int)
(declare-const |k':40:48:51| Int)
(declare-const |havoc:4| Int)
(declare-const |i':39:49:52| Int)
(declare-const |K:46:47:50| Int)
(declare-const |havoc:2| Int)
(assert (and (= havoc 0) (= |havoc:2| 0)
               (or (not (and (<= (- |K:46:47:50|) 0) (<= |K:46:47:50| 0)))
                     (= (+ |k':40:48:51| (- |K:46:47:50|) (- |havoc:2|)) 0))
               (or (not (<= (+ (- |K:46:47:50|) 1) 0))
                     (= (+ (* 2 |k':40:48:51|) (* -2 |K:46:47:50|)
                             (- |havoc:2|) (- havoc)) 0))
               (or (not (and (<= (- |K:46:47:50|) 0) (<= |K:46:47:50| 0)))
                     (= (+ |i':39:49:52| (- |K:46:47:50|) (- havoc)) 0))
               (or (not (<= (+ (- |K:46:47:50|) 1) 0))
                     (= (+ (* 2 |i':39:49:52|) (* -2 |K:46:47:50|)
                             (- |havoc:2|) (- havoc)) 0))
               (or (and (= |K:46:47:50| 0)
                          (= (+ (- |k':40:48:51|) |havoc:2|) 0)
                          (= (+ (- |i':39:49:52|) havoc) 0))
                     (and (<= (+ (- |K:46:47:50|) 1) 0)
                            (= (+ |havoc:2| (- havoc)) 0)
                            (<= (+ (- |havoc:4|) havoc 1) 0) (<= (- havoc) 0)
                            (= (+ (- |i':39:49:52|) |k':40:48:51|) 0)
                            (<= (+ (- |havoc:4|) |i':39:49:52|) 0)
                            (<= (+ (- |i':39:49:52|) 1) 0)))
               (<= (- |K:46:47:50|) 0) (<= (- |i':39:49:52|) 0)
               (<= (- |k':40:48:51|) 0)
               (= (+ |i':39:49:52| (- |k':40:48:51|)) 0)
               (<= (+ |havoc:4| (- |i':39:49:52|)) 0)
               (not (<= (+ |havoc:4| (- |k':40:48:51|)) 0))))
(check-sat)
